(set-option :print-success false)
(set-logic QF_UF)
(declare-sort x155 0)
(declare-sort x18 0)
(declare-fun x42 (x18 x18) x18)
(declare-fun x126 () x18)
(declare-fun x40 () x18)
(declare-fun x71 () x18)
(declare-fun x69 (x18 x18) x18)
(declare-fun x66 () x18)
(declare-fun x13 () x18)
(assert (or (or (or (and (not (= (x42 x13 (x42 x13 x66)) x66)) (and (not (= x126 (x42 x13 (x42 x13 x126)))) (and (not (= (x42 x13 (x42 x13 x13)) x13)) (and (not (= x71 (x42 x13 (x42 x13 x71)))) (not (= (x42 x13 (x42 x13 x40)) x40)))))) (or (and (and (and (not (= x13 (x42 x71 (x42 x71 x13)))) (and (not (= (x42 x71 (x42 x71 x71)) x71)) (not (= (x42 x71 (x42 x71 x40)) x40)))) (not (= x126 (x42 x71 (x42 x71 x126))))) (not (= (x42 x71 (x42 x71 x66)) x66))) (and (not (= (x42 x40 (x42 x40 x66)) x66)) (and (and (and (not (= x71 (x42 x40 (x42 x40 x71)))) (not (= (x42 x40 (x42 x40 x40)) x40))) (not (= (x42 x40 (x42 x40 x13)) x13))) (not (= x126 (x42 x40 (x42 x40 x126)))))))) (and (and (and (not (= (x42 x126 (x42 x126 x13)) x13)) (and (not (= (x42 x126 (x42 x126 x71)) x71)) (not (= (x42 x126 (x42 x126 x40)) x40)))) (not (= x126 (x42 x126 (x42 x126 x126))))) (not (= (x42 x126 (x42 x126 x66)) x66)))) (and (not (= x66 (x42 x66 (x42 x66 x66)))) (and (and (not (= (x42 x66 (x42 x66 x13)) x13)) (and (not (= (x42 x66 (x42 x66 x40)) x40)) (not (= (x42 x66 (x42 x66 x71)) x71)))) (not (= x126 (x42 x66 (x42 x66 x126))))))))
(assert (not (and (and (and (and (and (= (x42 x66 x71) x126) (and (and (= (x42 x126 x126) x126) (and (= (x42 x126 x13) x40) (and (and (= x71 (x42 x126 x71)) (and (= x13 (x42 x13 x66)) (and (= x71 (x42 x13 x126)) (and (= (x42 x13 x13) x66) (and (and (= (x42 x13 x71) x40) (and (= (x42 x40 x66) x126) (and (and (= (x42 x40 x13) x71) (and (and (and (and (= x66 (x42 x71 x126)) (and (and (= x71 (x42 x71 x40)) (= (x42 x71 x71) x13)) (= (x42 x71 x13) x126))) (= (x42 x71 x66) x40)) (= (x42 x40 x71) x66)) (= (x42 x40 x40) x40))) (= x13 (x42 x40 x126))))) (= (x42 x13 x40) x126)))))) (= x13 (x42 x126 x40))))) (= x66 (x42 x126 x66)))) (= x66 (x42 x66 x40))) (= x13 (x42 x66 x13))) (= (x42 x66 x126) x40)) (= (x42 x66 x66) x71))))
(assert (let ((x95 (x42 x13 x40)) (x54 (x42 x126 x13)) (x138 (x42 x40 x13)) (x124 (x42 x126 x40)) (x150 (x42 x126 x66)) (x24 (x42 x71 x66)) (x31 (x42 x40 x66)) (x90 (x42 x13 x13)) (x151 (x42 x66 x71)) (x132 (x42 x13 x71)) (x102 (x42 x71 x126)) (x37 (x42 x13 x126)) (x86 (x42 x126 x126)) (x85 (x42 x66 x40)) (x46 (x42 x126 x71)) (x92 (x42 x66 x126)) (x4 (x42 x13 x66)) (x141 (x42 x71 x71)) (x116 (x42 x40 x71)) (x137 (x42 x40 x126)) (x148 (x42 x66 x13)) (x99 (x42 x71 x13)) (x146 (x42 x40 x40)) (x122 (x42 x71 x40)) (x100 (x42 x66 x66))) (and (and (and (and (and (and (and (and (or (or (or (= x141 x13) (or (= x141 x40) (= x141 x71))) (= x126 x141)) (= x141 x66)) (or (= x122 x66) (or (= x126 x122) (or (= x122 x13) (or (= x122 x71) (= x40 x122)))))) (or (or (or (= x99 x13) (or (= x99 x40) (= x71 x99))) (= x126 x99)) (= x66 x99))) (or (or (or (= x13 x102) (or (= x102 x71) (= x102 x40))) (= x102 x126)) (= x102 x66))) (or (= x24 x66) (or (or (= x13 x24) (or (= x40 x24) (= x71 x24))) (= x24 x126)))) (and (or (= x31 x66) (or (= x126 x31) (or (or (= x31 x40) (= x31 x71)) (= x13 x31)))) (and (and (or (or (= x126 x138) (or (= x13 x138) (or (= x138 x40) (= x71 x138)))) (= x66 x138)) (and (or (= x66 x146) (or (= x126 x146) (or (= x13 x146) (or (= x146 x71) (= x146 x40))))) (or (= x116 x66) (or (= x116 x126) (or (= x116 x13) (or (= x116 x71) (= x40 x116))))))) (or (or (= x126 x137) (or (= x13 x137) (or (= x40 x137) (= x71 x137)))) (= x137 x66))))) (and (or (or (or (= x13 x4) (or (= x71 x4) (= x4 x40))) (= x4 x126)) (= x66 x4)) (and (or (= x37 x66) (or (= x126 x37) (or (= x37 x13) (or (= x40 x37) (= x71 x37))))) (and (or (or (= x126 x90) (or (or (= x90 x40) (= x71 x90)) (= x90 x13))) (= x90 x66)) (and (or (or (or (or (= x95 x40) (= x95 x71)) (= x13 x95)) (= x95 x126)) (= x66 x95)) (or (= x66 x132) (or (or (= x132 x13) (or (= x40 x132) (= x132 x71))) (= x126 x132)))))))) (and (and (and (and (or (or (= x126 x124) (or (= x13 x124) (or (= x124 x71) (= x40 x124)))) (= x124 x66)) (or (or (= x126 x46) (or (= x46 x13) (or (= x46 x71) (= x46 x40)))) (= x66 x46))) (or (= x54 x66) (or (= x54 x126) (or (or (= x54 x40) (= x71 x54)) (= x13 x54))))) (or (= x86 x66) (or (or (or (= x86 x40) (= x86 x71)) (= x13 x86)) (= x86 x126)))) (or (= x150 x66) (or (or (= x13 x150) (or (= x150 x71) (= x40 x150))) (= x126 x150))))) (and (and (and (or (or (or (= x13 x148) (or (= x40 x148) (= x71 x148))) (= x126 x148)) (= x66 x148)) (and (or (or (= x126 x151) (or (= x151 x13) (or (= x151 x71) (= x151 x40)))) (= x66 x151)) (or (or (= x126 x85) (or (or (= x85 x71) (= x40 x85)) (= x13 x85))) (= x66 x85)))) (or (= x92 x66) (or (= x126 x92) (or (= x92 x13) (or (= x40 x92) (= x71 x92)))))) (or (= x100 x66) (or (or (or (= x40 x100) (= x100 x71)) (= x100 x13)) (= x126 x100)))))))
(assert (and (and (= (x42 x40 x66) x126) (and (= x13 (x42 x71 x71)) (= x40 (x42 x13 x71)))) (= x66 (x42 x40 x71))))
(assert (let ((x141 (x42 x71 x71)) (x24 (x42 x66 x66)) (x122 (x42 x40 x40)) (x99 (x42 x13 x13)) (x102 (x42 x126 x126))) (and (and (or (= x24 x126) (or (or (or (= x126 x141) (= x126 x122)) (= x99 x126)) (= x126 x102))) (and (or (= x13 x24) (or (or (= x99 x13) (or (= x122 x13) (= x141 x13))) (= x102 x13))) (and (or (= x24 x40) (or (= x40 x102) (or (or (= x122 x40) (= x40 x141)) (= x99 x40)))) (or (or (or (or (= x71 x141) (= x122 x71)) (= x71 x99)) (= x71 x102)) (= x71 x24))))) (or (or (= x102 x66) (or (= x66 x99) (or (= x66 x122) (= x141 x66)))) (= x66 x24)))))
(assert (let ((x151 (x42 x13 x66)) (x132 (x42 x126 x71)) (x137 (x42 x13 x13)) (x92 (x42 x66 x126)) (x24 (x42 x71 x13)) (x90 (x42 x126 x40)) (x102 (x42 x40 x40)) (x124 (x42 x71 x66)) (x46 (x42 x126 x126)) (x95 (x42 x40 x126)) (x146 (x42 x40 x13)) (x85 (x42 x66 x13)) (x99 (x42 x40 x71)) (x141 (x42 x71 x71)) (x31 (x42 x71 x126)) (x150 (x42 x66 x40)) (x4 (x42 x126 x13)) (x86 (x42 x40 x66)) (x138 (x42 x13 x40)) (x122 (x42 x71 x40)) (x100 (x42 x66 x66)) (x37 (x42 x13 x126)) (x116 (x42 x13 x71)) (x148 (x42 x126 x66)) (x54 (x42 x66 x71))) (or (or (or (or (not (= x151 x85)) (or (not (= x150 x86)) (not (= x54 x124)))) (not (= x148 x92))) (not (= x100 x100))) (or (or (or (or (not (= x4 x37)) (or (not (= x137 x137)) (or (not (= x116 x24)) (not (= x146 x138))))) (not (= x151 x85))) (or (or (not (= x150 x86)) (or (or (not (= x146 x138)) (or (not (= x99 x122)) (not (= x102 x102)))) (not (= x90 x95)))) (or (not (= x54 x124)) (or (or (not (= x116 x24)) (or (not (= x141 x141)) (not (= x122 x99)))) (not (= x132 x31)))))) (or (or (or (not (= x4 x37)) (or (not (= x90 x95)) (not (= x31 x132)))) (not (= x46 x46))) (not (= x148 x92)))))))
(assert (let ((x132 (x42 x71 x13)) (x31 (x42 x66 x40)) (x141 (x42 x71 x71)) (x92 (x42 x126 x66)) (x116 (x42 x71 x40)) (x137 (x42 x126 x40)) (x100 (x42 x66 x66)) (x151 (x42 x71 x66)) (x24 (x42 x66 x71)) (x99 (x42 x13 x71)) (x86 (x42 x126 x126)) (x148 (x42 x13 x66)) (x138 (x42 x13 x40)) (x122 (x42 x40 x71)) (x90 (x42 x13 x13)) (x146 (x42 x40 x40)) (x4 (x42 x66 x13)) (x37 (x42 x126 x13)) (x46 (x42 x71 x126)) (x150 (x42 x66 x126)) (x124 (x42 x40 x126)) (x54 (x42 x13 x126)) (x95 (x42 x40 x13)) (x102 (x42 x126 x71)) (x85 (x42 x40 x66))) (and (and (and (and (and (not (= x4 x150)) (and (not (= x100 x31)) (and (and (not (= x31 x4)) (and (not (= x100 x24)) (and (and (not (= x31 x24)) (not (= x24 x4))) (not (= x24 x150))))) (not (= x150 x31))))) (not (= x4 x100))) (not (= x100 x150))) (and (and (not (= x92 x86)) (and (not (= x37 x92)) (and (not (= x37 x86)) (and (not (= x92 x137)) (and (and (and (not (= x102 x92)) (and (not (= x102 x86)) (and (not (= x102 x137)) (not (= x102 x37))))) (not (= x37 x137))) (not (= x137 x86))))))) (and (and (not (= x54 x148)) (and (and (not (= x90 x54)) (and (not (= x138 x148)) (and (not (= x54 x138)) (and (and (not (= x148 x99)) (and (and (not (= x99 x138)) (not (= x90 x99))) (not (= x54 x99)))) (not (= x138 x90)))))) (not (= x148 x90)))) (and (and (and (and (not (= x95 x124)) (and (and (not (= x124 x146)) (and (not (= x146 x95)) (and (and (and (not (= x122 x146)) (not (= x122 x95))) (not (= x124 x122))) (not (= x85 x122))))) (not (= x85 x146)))) (not (= x85 x95))) (not (= x124 x85))) (and (and (and (and (and (and (not (= x132 x116)) (and (and (not (= x141 x46)) (and (not (= x141 x132)) (not (= x116 x141)))) (not (= x151 x141)))) (not (= x116 x46))) (not (= x116 x151))) (not (= x46 x132))) (not (= x132 x151))) (not (= x151 x46))))))) (and (and (not (= x92 x100)) (and (and (not (= x92 x148)) (and (and (not (= x92 x85)) (and (not (= x85 x148)) (and (not (= x151 x100)) (and (not (= x92 x151)) (and (not (= x148 x151)) (not (= x85 x151))))))) (not (= x100 x85)))) (not (= x100 x148)))) (and (and (and (and (and (and (and (not (= x122 x24)) (and (and (not (= x122 x99)) (and (and (and (not (= x141 x122)) (not (= x141 x99))) (not (= x102 x141))) (not (= x24 x141)))) (not (= x122 x102)))) (not (= x99 x102))) (not (= x99 x24))) (not (= x24 x102))) (and (and (not (= x31 x138)) (and (not (= x137 x138)) (and (and (and (not (= x146 x138)) (and (not (= x31 x116)) (and (not (= x137 x116)) (and (not (= x146 x116)) (not (= x138 x116)))))) (not (= x146 x137))) (not (= x146 x31))))) (not (= x137 x31)))) (and (and (and (not (= x37 x90)) (and (not (= x95 x4)) (and (not (= x95 x37)) (and (and (not (= x132 x4)) (and (not (= x132 x37)) (and (not (= x95 x132)) (not (= x90 x132))))) (not (= x95 x90)))))) (not (= x90 x4))) (not (= x4 x37)))) (and (and (and (not (= x86 x54)) (and (and (and (not (= x124 x54)) (and (and (and (not (= x46 x54)) (not (= x46 x124))) (not (= x46 x86))) (not (= x46 x150)))) (not (= x86 x124))) (not (= x150 x124)))) (not (= x150 x54))) (not (= x86 x150))))))))
(assert (or (= x66 (x42 x66 x66)) (or (or (or (= (x42 x40 x40) x40) (= x71 (x42 x71 x71))) (= (x42 x13 x13) x13)) (= x126 (x42 x126 x126)))))
(assert (or (and (not (= (x42 x66 x66) x66)) (and (and (and (not (= (x42 x40 x66) x40)) (not (= (x42 x71 x66) x71))) (not (= (x42 x13 x66) x13))) (not (= (x42 x126 x66) x126)))) (or (and (and (not (= x126 (x42 x126 x126))) (and (and (not (= x71 (x42 x71 x126))) (not (= x40 (x42 x40 x126)))) (not (= x13 (x42 x13 x126))))) (not (= (x42 x66 x126) x66))) (or (and (and (and (not (= (x42 x13 x13) x13)) (and (not (= (x42 x40 x13) x40)) (not (= (x42 x71 x13) x71)))) (not (= (x42 x126 x13) x126))) (not (= (x42 x66 x13) x66))) (or (and (and (not (= x126 (x42 x126 x40))) (and (not (= x13 (x42 x13 x40))) (and (not (= (x42 x40 x40) x40)) (not (= x71 (x42 x71 x40)))))) (not (= x66 (x42 x66 x40)))) (and (and (and (and (not (= x71 (x42 x71 x71))) (not (= x40 (x42 x40 x71)))) (not (= x13 (x42 x13 x71)))) (not (= (x42 x126 x71) x126))) (not (= x66 (x42 x66 x71)))))))))
(assert (let ((x131 (x42 x71 x66)) (x20 (x42 x13 x13)) (x154 (x42 x126 x71)) (x57 (x42 x66 x13)) (x144 (x42 x66 x71)) (x133 (x42 x13 x71)) (x84 (x42 x71 x40)) (x47 (x42 x126 x126)) (x77 (x42 x40 x40)) (x55 (x42 x71 x126)) (x94 (x42 x40 x13)) (x143 (x42 x13 x126)) (x74 (x42 x126 x66)) (x32 (x42 x13 x66)) (x14 (x42 x126 x13)) (x39 (x42 x126 x40)) (x118 (x42 x66 x66)) (x9 (x42 x40 x71)) (x59 (x42 x66 x40)) (x58 (x42 x40 x126)) (x111 (x42 x40 x66)) (x121 (x42 x71 x71)) (x130 (x42 x13 x40)) (x83 (x42 x66 x126)) (x156 (x42 x71 x13))) (let ((x17 (= x40 x14)) (x142 (= x118 x126)) (x76 (= x84 x40)) (x16 (= x66 x83)) (x86 (= x71 x59)) (x21 (= x13 x130)) (x1 (= x126 x39)) (x24 (= x71 x133)) (x44 (= x66 x143)) (x140 (= x66 x156)) (x72 (= x118 x66)) (x62 (= x13 x39)) (x6 (= x126 x84)) (x36 (= x40 x121)) (x127 (= x39 x66)) (x29 (= x121 x13)) (x11 (= x66 x47)) (x122 (= x71 x9)) (x80 (= x32 x13)) (x30 (= x55 x66)) (x117 (= x111 x40)) (x115 (= x40 x144)) (x146 (= x130 x71)) (x114 (= x133 x66)) (x98 (= x126 x47)) (x91 (= x40 x74)) (x4 (= x143 x71)) (x37 (= x14 x71)) (x23 (= x121 x66)) (x137 (= x71 x20)) (x27 (= x59 x66)) (x56 (= x40 x77)) (x31 (= x154 x71)) (x99 (= x71 x84)) (x128 (= x40 x55)) (x38 (= x66 x20)) (x112 (= x13 x144)) (x15 (= x77 x126)) (x159 (= x40 x143)) (x12 (= x40 x58)) (x108 (= x57 x66)) (x2 (= x57 x40)) (x89 (= x156 x126)) (x46 (= x71 x47)) (x120 (= x40 x32)) (x53 (= x66 x9)) (x26 (= x40 x47)) (x10 (= x47 x13)) (x129 (= x156 x13)) (x85 (= x71 x32)) (x103 (= x39 x40)) (x41 (= x66 x77)) (x63 (= x40 x156)) (x124 (= x71 x144)) (x104 (= x126 x133)) (x45 (= x126 x58)) (x100 (= x118 x71)) (x70 (= x143 x126)) (x87 (= x57 x13)) (x139 (= x126 x154)) (x123 (= x130 x126)) (x82 (= x66 x74)) (x75 (= x13 x143)) (x54 (= x131 x71)) (x50 (= x66 x58)) (x81 (= x74 x126)) (x110 (= x66 x130)) (x35 (= x55 x13)) (x147 (= x40 x133)) (x119 (= x66 x32)) (x97 (= x13 x131)) (x150 (= x111 x71)) (x93 (= x32 x126)) (x34 (= x13 x20)) (x96 (= x131 x126)) (x49 (= x13 x58)) (x64 (= x40 x130)) (x138 (= x71 x94)) (x136 (= x83 x126)) (x8 (= x9 x40)) (x28 (= x40 x118)) (x61 (= x40 x59)) (x157 (= x20 x40)) (x68 (= x40 x131)) (x78 (= x111 x13)) (x145 (= x121 x126)) (x73 (= x83 x40)) (x79 (= x13 x14)) (x113 (= x131 x66)) (x60 (= x66 x154)) (x105 (= x77 x13)) (x148 (= x83 x71)) (x19 (= x13 x118)) (x141 (= x121 x71)) (x132 (= x71 x55)) (x43 (= x94 x126)) (x95 (= x39 x71)) (x152 (= x84 x66)) (x52 (= x40 x94)) (x149 (= x13 x74)) (x67 (= x126 x144)) (x101 (= x154 x40)) (x106 (= x111 x66)) (x102 (= x77 x71)) (x125 (= x126 x14)) (x107 (= x13 x83)) (x22 (= x111 x126)) (x48 (= x9 x13)) (x151 (= x71 x57)) (x51 (= x126 x59)) (x109 (= x13 x84)) (x3 (= x66 x144)) (x92 (= x71 x74)) (x88 (= x154 x13)) (x135 (= x57 x126)) (x158 (= x66 x14)) (x116 (= x156 x71)) (x153 (= x13 x59)) (x33 (= x9 x126)) (x7 (= x126 x55)) (x90 (= x58 x71)) (x65 (= x20 x126)) (x5 (= x94 x13)) (x134 (= x94 x66)) (x25 (= x133 x13))) (or (and (and (and (or x16 (not x82)) (and (or x11 (not x11)) (and (and (or (not x60) x30) (or x50 (not x127))) (or x44 (not x158))))) (and (and (and (or (not x113) x3) (and (or (not x30) x60) (and (or (not x140) x114) (and (or x53 (not x152)) (or x23 (not x23)))))) (and (or x27 (not x106)) (and (and (or x110 (not x134)) (and (or (not x41) x41) (or x152 (not x53)))) (or (not x50) x127)))) (and (and (and (or x38 (not x38)) (and (or (not x114) x140) (or x134 (not x110)))) (or (not x44) x158)) (or (not x119) x108)))) (and (or x72 (not x72)) (and (or x82 (not x16)) (and (or x119 (not x108)) (and (or x106 (not x27)) (or x113 (not x3))))))) (or (or (or (and (and (and (or x91 (not x73)) (and (or (not x2) x120) (and (or (not x115) x68) (or (not x61) x117)))) (or (not x28) x28)) (and (and (or x73 (not x91)) (and (and (and (or x128 (not x101)) (or x12 (not x103))) (or (not x17) x159)) (or x26 (not x26)))) (and (and (and (or (not x68) x115) (and (and (or (not x63) x147) (and (or x36 (not x36)) (or (not x76) x8))) (or (not x128) x101))) (and (and (or x103 (not x12)) (and (and (or x76 (not x8)) (or (not x56) x56)) (or (not x52) x64))) (or x61 (not x117)))) (and (or (not x120) x2) (and (and (or (not x157) x157) (and (or (not x64) x52) (or (not x147) x63))) (or x17 (not x159))))))) (and (and (and (or (not x148) x92) (and (or x85 (not x151)) (and (or x54 (not x124)) (or (not x86) x150)))) (or (not x100) x100)) (and (and (and (and (and (and (or (not x24) x116) (or x138 (not x146))) (or x137 (not x137))) (or x37 (not x4))) (or (not x85) x151)) (and (and (and (and (and (or (not x99) x122) (or (not x141) x141)) (or x24 (not x116))) (or (not x132) x31)) (or (not x54) x124)) (and (and (or (not x90) x95) (and (and (or x102 (not x102)) (or x99 (not x122))) (or x146 (not x138)))) (or x86 (not x150))))) (and (and (or x46 (not x46)) (and (and (or (not x31) x132) (or (not x95) x90)) (or (not x37) x4))) (or (not x92) x148))))) (and (and (and (or (not x107) x149) (and (or (not x87) x80) (and (or (not x112) x97) (or x78 (not x153))))) (or (not x19) x19)) (and (and (and (and (or x112 (not x97)) (and (or x88 (not x35)) (and (and (or (not x109) x48) (or x29 (not x29))) (or x25 (not x129))))) (and (and (and (and (or (not x105) x105) (or x109 (not x48))) (or x21 (not x5))) (or (not x49) x62)) (or (not x78) x153))) (and (or x87 (not x80)) (and (and (or (not x34) x34) (and (or x5 (not x21)) (or (not x25) x129))) (or (not x75) x79)))) (and (and (or x10 (not x10)) (and (or (not x79) x75) (and (or (not x62) x49) (or x35 (not x88))))) (or (not x149) x107))))) (and (and (and (or x136 (not x81)) (and (or (not x98) x98) (and (or (not x125) x70) (and (or (not x1) x45) (or (not x139) x7))))) (and (and (or (not x93) x135) (and (or x125 (not x70)) (and (and (or x89 (not x104)) (or x43 (not x123))) (or (not x65) x65)))) (and (and (and (or x1 (not x45)) (and (or x123 (not x43)) (and (or x15 (not x15)) (or (not x33) x6)))) (or x51 (not x22))) (and (and (and (or x104 (not x89)) (and (or (not x6) x33) (or (not x145) x145))) (or (not x7) x139)) (or x67 (not x96)))))) (and (and (or x81 (not x136)) (and (or (not x135) x93) (and (or x22 (not x51)) (or (not x67) x96)))) (or x142 (not x142)))))))))
(assert (and (not (= x66 x126)) (and (not (= x13 x66)) (and (and (and (and (and (and (not (= x126 x71)) (and (not (= x71 x13)) (not (= x71 x40)))) (not (= x66 x71))) (not (= x13 x40))) (not (= x126 x40))) (not (= x40 x66))) (not (= x13 x126))))))
(assert (let ((x46 (x42 x126 x71)) (x92 (x42 x66 x126)) (x95 (x42 x13 x40)) (x151 (x42 x66 x71)) (x4 (x42 x13 x66)) (x146 (x42 x40 x40)) (x85 (x42 x66 x40)) (x148 (x42 x66 x13)) (x37 (x42 x13 x126)) (x31 (x42 x40 x66)) (x99 (x42 x71 x13)) (x150 (x42 x126 x66)) (x124 (x42 x126 x40)) (x90 (x42 x13 x13)) (x100 (x42 x66 x66)) (x122 (x42 x71 x40)) (x24 (x42 x71 x66)) (x54 (x42 x126 x13)) (x141 (x42 x71 x71)) (x137 (x42 x40 x126)) (x116 (x42 x40 x71)) (x86 (x42 x126 x126)) (x138 (x42 x40 x13)) (x132 (x42 x13 x71)) (x102 (x42 x71 x126))) (and (and (or (= (x42 x100 x66) x66) (or (= (x42 x92 x66) x126) (or (or (= (x42 x151 x66) x71) (= (x42 x85 x66) x40)) (= x13 (x42 x148 x66))))) (and (and (and (or (= (x42 x31 x40) x66) (or (or (or (= (x42 x146 x40) x40) (= x71 (x42 x116 x40))) (= (x42 x138 x40) x13)) (= (x42 x137 x40) x126))) (or (= x66 (x42 x24 x71)) (or (or (or (= (x42 x122 x71) x40) (= (x42 x141 x71) x71)) (= x13 (x42 x99 x71))) (= x126 (x42 x102 x71))))) (or (= (x42 x4 x13) x66) (or (= x126 (x42 x37 x13)) (or (= (x42 x90 x13) x13) (or (= x71 (x42 x132 x13)) (= x40 (x42 x95 x13))))))) (or (= (x42 x150 x126) x66) (or (or (= x13 (x42 x54 x126)) (or (= (x42 x46 x126) x71) (= (x42 x124 x126) x40))) (= x126 (x42 x86 x126)))))) (and (or (or (= (x42 x126 x92) x66) (or (= (x42 x13 x148) x66) (or (= (x42 x40 x85) x66) (= (x42 x71 x151) x66)))) (= (x42 x66 x100) x66)) (and (or (= (x42 x66 x150) x126) (or (= (x42 x126 x86) x126) (or (or (= (x42 x71 x46) x126) (= (x42 x40 x124) x126)) (= x126 (x42 x13 x54))))) (and (and (or (or (= (x42 x126 x137) x40) (or (= (x42 x13 x138) x40) (or (= x40 (x42 x71 x116)) (= x40 (x42 x40 x146))))) (= x40 (x42 x66 x31))) (or (or (or (or (= (x42 x40 x122) x71) (= (x42 x71 x141) x71)) (= x71 (x42 x13 x99))) (= (x42 x126 x102) x71)) (= (x42 x66 x24) x71))) (or (or (= x13 (x42 x126 x37)) (or (or (= (x42 x71 x132) x13) (= x13 (x42 x40 x95))) (= (x42 x13 x90) x13))) (= (x42 x66 x4) x13))))))))
(assert (let ((x85 (x42 x40 x66)) (x36 (x42 x66 x40)) (x5 (x42 x66 x126)) (x96 (x42 x66 x66)) (x24 (x42 x71 x126)) (x116 (x42 x71 x66)) (x111 (x42 x13 x13)) (x137 (x42 x13 x71)) (x99 (x42 x71 x40)) (x150 (x42 x40 x13)) (x122 (x42 x71 x71)) (x151 (x42 x40 x126)) (x102 (x42 x71 x13)) (x31 (x42 x126 x71)) (x48 (x42 x126 x126)) (x109 (x42 x126 x66)) (x20 (x42 x126 x13)) (x157 (x42 x66 x13)) (x147 (x42 x13 x66)) (x138 (x42 x40 x71)) (x132 (x42 x66 x71)) (x121 (x42 x126 x40)) (x86 (x42 x40 x40)) (x59 (x42 x13 x126)) (x100 (x42 x13 x40))) (let ((x154 (= x126 x86)) (x6 (= x66 x59)) (x159 (= x126 x111)) (x144 (= x66 x99)) (x46 (= x99 x71)) (x3 (= x132 x66)) (x41 (= x85 x13)) (x94 (= x71 x150)) (x143 (= x137 x13)) (x61 (= x121 x71)) (x50 (= x85 x126)) (x136 (= x40 x96)) (x1 (= x71 x109)) (x114 (= x147 x13)) (x118 (= x31 x40)) (x17 (= x126 x150)) (x87 (= x126 x59)) (x60 (= x126 x157)) (x15 (= x66 x48)) (x140 (= x13 x109)) (x21 (= x40 x48)) (x52 (= x40 x111)) (x33 (= x66 x151)) (x158 (= x126 x147)) (x64 (= x150 x40)) (x129 (= x59 x40)) (x67 (= x40 x5)) (x22 (= x40 x85)) (x49 (= x151 x13)) (x92 (= x86 x40)) (x2 (= x24 x71)) (x7 (= x147 x71)) (x156 (= x13 x86)) (x78 (= x151 x126)) (x112 (= x121 x126)) (x127 (= x116 x126)) (x26 (= x100 x66)) (x117 (= x71 x20)) (x56 (= x102 x71)) (x98 (= x40 x157)) (x73 (= x59 x71)) (x93 (= x109 x40)) (x141 (= x71 x122)) (x70 (= x36 x40)) (x82 (= x109 x66)) (x51 (= x116 x40)) (x45 (= x71 x96)) (x76 (= x71 x137)) (x103 (= x126 x100)) (x113 (= x36 x66)) (x83 (= x150 x66)) (x135 (= x40 x147)) (x32 (= x13 x102)) (x115 (= x111 x66)) (x35 (= x13 x20)) (x75 (= x48 x13)) (x80 (= x126 x48)) (x4 (= x138 x71)) (x153 (= x126 x24)) (x79 (= x59 x13)) (x124 (= x86 x71)) (x123 (= x157 x71)) (x57 (= x150 x13)) (x125 (= x132 x40)) (x77 (= x100 x71)) (x9 (= x99 x13)) (x91 (= x71 x48)) (x88 (= x121 x13)) (x95 (= x122 x13)) (x119 (= x85 x66)) (x74 (= x102 x66)) (x11 (= x126 x96)) (x90 (= x126 x122)) (x62 (= x24 x13)) (x104 (= x71 x132)) (x10 (= x31 x126)) (x142 (= x13 x36)) (x43 (= x5 x71)) (x148 (= x40 x99)) (x120 (= x71 x151)) (x28 (= x121 x40)) (x97 (= x126 x20)) (x84 (= x13 x138)) (x34 (= x13 x31)) (x38 (= x36 x126)) (x19 (= x20 x66)) (x37 (= x66 x122)) (x89 (= x71 x36)) (x107 (= x66 x31)) (x53 (= x5 x13)) (x16 (= x66 x147)) (x134 (= x126 x132)) (x39 (= x40 x100)) (x152 (= x13 x116)) (x58 (= x137 x40)) (x130 (= x111 x71)) (x108 (= x116 x66)) (x63 (= x102 x40)) (x128 (= x137 x126)) (x146 (= x40 x122)) (x139 (= x85 x71)) (x12 (= x102 x126)) (x131 (= x66 x138)) (x65 (= x71 x116)) (x101 (= x111 x13)) (x149 (= x66 x121)) (x29 (= x40 x20)) (x105 (= x24 x40)) (x30 (= x5 x126)) (x72 (= x66 x96)) (x106 (= x66 x5)) (x110 (= x96 x13)) (x133 (= x126 x138)) (x81 (= x13 x132)) (x23 (= x13 x157)) (x44 (= x126 x109)) (x54 (= x40 x138)) (x14 (= x100 x13)) (x8 (= x86 x66)) (x27 (= x66 x157)) (x47 (= x137 x66)) (x68 (= x71 x31)) (x145 (= x24 x66)) (x25 (= x151 x40)) (x55 (= x99 x126))) (and (and (and (and (and (and (and (or (or (or x128 (or x133 x90)) x10) x134) (or (or (or x12 (or x55 x90)) x153) x127)) (and (and (or (or x62 (or (or x9 x95) x32)) x152) (or (or x34 (or (or x95 x84) x143)) x81)) (and (and (or x51 (or x105 (or (or x146 x148) x63))) (or (or (or (or x146 x54) x58) x118) x125)) (and (or (or x68 (or x76 (or x4 x141))) x104) (or (or x2 (or (or x46 x141) x56)) x65))))) (and (or (or (or x74 (or x37 x144)) x145) x108) (or (or x107 (or (or x131 x37) x47)) x3))) (and (and (or (or x33 (or x83 (or x8 x131))) x119) (or (or (or (or x144 x8) x26) x149) x113)) (and (and (and (or (or x88 (or (or x156 x9) x14)) x142) (or (or (or (or x156 x84) x57) x49) x41)) (and (and (or (or (or x77 (or x46 x124)) x61) x89) (or (or (or x94 (or x4 x124)) x120) x139)) (and (or x22 (or x25 (or x64 (or x92 x54)))) (or x70 (or (or x39 (or x92 x148)) x28))))) (and (or x50 (or x78 (or (or x133 x154) x17))) (or x38 (or (or (or x154 x55) x103) x112)))))) (and (and (or (or (or x115 (or x83 x74)) x19) x27) (or (or x6 (or (or x26 x47) x115)) x16)) (and (and (and (and (or (or x29 (or (or x63 x64) x52)) x98) (or (or (or x52 (or x58 x39)) x129) x135)) (and (or x123 (or (or (or x56 x94) x130) x117)) (or (or (or (or x77 x76) x130) x73) x7))) (and (or x114 (or (or (or x14 x143) x101) x79)) (or (or x35 (or (or x32 x57) x101)) x23))) (and (or (or (or (or x12 x17) x159) x97) x60) (or (or (or x159 (or x128 x103)) x87) x158))))) (and (and (or (or (or x19 (or x149 x107)) x15) x82) (or x106 (or x15 (or (or x145 x33) x6)))) (and (and (and (or x140 (or x75 (or x35 (or x88 x34)))) (or (or (or x79 (or x62 x49)) x75) x53)) (and (and (or x93 (or x21 (or (or x118 x28) x29))) (or (or x21 (or x129 (or x25 x105))) x67)) (and (or x1 (or x91 (or x117 (or x68 x61)))) (or x43 (or (or x73 (or x2 x120)) x91))))) (and (or (or (or x97 (or x112 x10)) x80) x44) (or x30 (or x80 (or x87 (or x153 x78)))))))) (and (and (or x72 (or (or (or x119 x108) x16) x82)) (or x72 (or x106 (or (or x3 x113) x27)))) (and (and (or (or (or (or x134 x38) x60) x30) x11) (or x11 (or x44 (or (or x127 x50) x158)))) (and (and (or x110 (or (or (or x41 x152) x114) x140)) (or (or (or (or x142 x81) x23) x53) x110)) (and (and (or x45 (or (or (or x65 x139) x7) x1)) (or x45 (or (or x123 (or x89 x104)) x43))) (and (or (or (or (or x22 x51) x135) x93) x136) (or (or x67 (or x98 (or x125 x70))) x136))))))))))
(assert (not (and (and (= x40 (x42 x66 x126)) (and (and (and (= x71 (x42 x66 x71)) (and (and (= (x42 x126 x126) x71) (and (= x40 (x42 x126 x13)) (and (and (= (x42 x126 x71) x126) (and (and (= x66 (x42 x13 x126)) (and (and (and (and (= x126 (x42 x40 x66)) (and (= (x42 x40 x126) x13) (and (and (and (= (x42 x40 x71) x66) (and (= x40 (x42 x71 x66)) (and (and (and (= x13 (x42 x71 x71)) (= x71 (x42 x71 x40))) (= (x42 x71 x13) x66)) (= (x42 x71 x126) x126)))) (= (x42 x40 x40) x40)) (= (x42 x40 x13) x71)))) (= (x42 x13 x71) x40)) (= x13 (x42 x13 x40))) (= (x42 x13 x13) x126))) (= (x42 x13 x66) x71))) (= x66 (x42 x126 x40))))) (= (x42 x126 x66) x13))) (= x126 (x42 x66 x40))) (= x13 (x42 x66 x13)))) (= x66 (x42 x66 x66)))))
(check-sat)
(exit)
